137
55
68
53
94
259
67
198
67
85
138
115
73
131
285
279
98
45
110
142
79
104
100
114
125
198
105
156
165
53
62
156
160
247
658
91
0
73
178
78
187
190
374
232
96
88
104
0
133
119
267
70
139
162
62
79
242
174
273
76
98
127
160
156
204
192
395
119
189
88
101
161
196
188
75
450
68
80
79
212
193
160
181
114
181
146
108
117
121
58
235
126
68
255
112
116
89
154
189
133
